unsat
(:conflicts            1
 :max-generation       1
 :max-memory           22.59
 :memory               20.99
 :mk-bool-var          492
 :mk-clause            38
 :mk-clause-binary     148
 :num-allocs           4408212
 :num-checks           1
 :quant-instantiations 66
 :rlimit-count         84694
 :time                 0.01)
